max_credits = 12;
n_courses = 18;
n_students = 80;
course_names = ["APLICACIONES DE LA BIOMETRIA DE LA VOZ", "ARQUITECTURA DEL DATA WAREHOUSE", "COMPUTABILIDAD: FUNDAMENTOS Y APLICACIONES", "COMPUTADORES PERSONALES", "DESARROLLO DE RECURSOS SEMÁNTICOS INTEROPERABLES Y ABIERTOS", "ESPAÑOL PROFESIONAL Y ACADÉMICO", "FOTOGRAFIA COMPUTACIONAL", "GEOMETRÍA 3D PARA INFORMÁTICA GRÁFICA", "INTELIGENCIA ARTIFICIAL Y CIENCIA ABIERTA EN INGENIERÍA DE SOFTWARE CIENTÍFICO", "MINERIA DE DATOS", "MULTIMEDIA", "PROGRAMMING PROJECT", "PROGRAMMING SCALABLE SYSTEMS", "SISTEMAS DINÁMICOS, CAOS Y FRACTALES", "SISTEMAS INTELIGENTES", "TEORÍA DE LA INFORMACIÓN Y LA CODIFICACIÓN", "TRADUCTORES DE LENGUAJES", "TRATAMIENTO DIGITAL DE LA SEÑAL"];
course_codes = ["105000164", "105000167", "105000088", "105000047", "105001069", "105000045", "105000165", "105000061", "105000453", "105000169", "105000444", "105000394", "105000443", "105000070", "105000044", "105000446", "105000397", "105000043"];
capacity = [7, 3, 33, 7, 19, 1, 4, 3, 13, 30, 5, 2, 15, 23, 3, 3, 19, 3];
credits = [3, 3, 3, 3, 3, 3, 3, 3, 3, 3, 3, 3, 3, 6, 6, 3, 6, 6];
students = ["alumno1@alumnos.upm.es", "alumno2@alumnos.upm.es", "alumno3@alumnos.upm.es", "alumno4@alumnos.upm.es", "alumno5@alumnos.upm.es", "alumno6@alumnos.upm.es", "alumno7@alumnos.upm.es", "alumno8@alumnos.upm.es", "alumno9@alumnos.upm.es", "alumno10@alumnos.upm.es", "alumno11@alumnos.upm.es", "alumno12@alumnos.upm.es", "alumno13@alumnos.upm.es", "alumno14@alumnos.upm.es", "alumno15@alumnos.upm.es", "alumno16@alumnos.upm.es", "alumno17@alumnos.upm.es", "alumno18@alumnos.upm.es", "alumno19@alumnos.upm.es", "alumno20@alumnos.upm.es", "alumno21@alumnos.upm.es", "alumno22@alumnos.upm.es", "alumno23@alumnos.upm.es", "alumno24@alumnos.upm.es", "alumno25@alumnos.upm.es", "alumno26@alumnos.upm.es", "alumno27@alumnos.upm.es", "alumno28@alumnos.upm.es", "alumno29@alumnos.upm.es", "alumno30@alumnos.upm.es", "alumno31@alumnos.upm.es", "alumno32@alumnos.upm.es", "alumno33@alumnos.upm.es", "alumno34@alumnos.upm.es", "alumno35@alumnos.upm.es", "alumno36@alumnos.upm.es", "alumno37@alumnos.upm.es", "alumno38@alumnos.upm.es", "alumno39@alumnos.upm.es", "alumno40@alumnos.upm.es", "alumno41@alumnos.upm.es", "alumno42@alumnos.upm.es", "alumno43@alumnos.upm.es", "alumno44@alumnos.upm.es", "alumno45@alumnos.upm.es", "alumno46@alumnos.upm.es", "alumno47@alumnos.upm.es", "alumno48@alumnos.upm.es", "alumno49@alumnos.upm.es", "alumno50@alumnos.upm.es", "alumno51@alumnos.upm.es", "alumno52@alumnos.upm.es", "alumno53@alumnos.upm.es", "alumno54@alumnos.upm.es", "alumno55@alumnos.upm.es", "alumno56@alumnos.upm.es", "alumno57@alumnos.upm.es", "alumno58@alumnos.upm.es", "alumno59@alumnos.upm.es", "alumno60@alumnos.upm.es", "alumno61@alumnos.upm.es", "alumno62@alumnos.upm.es", "alumno63@alumnos.upm.es", "alumno64@alumnos.upm.es", "alumno65@alumnos.upm.es", "alumno66@alumnos.upm.es", "alumno67@alumnos.upm.es", "alumno68@alumnos.upm.es", "alumno69@alumnos.upm.es", "alumno70@alumnos.upm.es", "alumno71@alumnos.upm.es", "alumno72@alumnos.upm.es", "alumno73@alumnos.upm.es", "alumno74@alumnos.upm.es", "alumno75@alumnos.upm.es", "alumno76@alumnos.upm.es", "alumno77@alumnos.upm.es", "alumno78@alumnos.upm.es", "alumno79@alumnos.upm.es", "alumno80@alumnos.upm.es"];
pref = [| 0, 0, 0, 3, 0, 0, 0, 0, 0, 0, 0, 3, 0, 0, 3, 0, 0, 0 
 | 0, 0, 0, 0, 0, 3, 0, 0, 0, 0, 0, 0, 0, 0, 0, 0, 0, 0 
 | 0, 0, 0, 0, 0, 3, 0, 3, 0, 0, 0, 0, 0, 0, 3, 0, 0, 3 
 | 0, 0, 0, 3, 0, 3, 0, 0, 0, 0, 0, 0, 3, 2, 0, 2, 0, 3 
 | 0, 1, 0, 2, 0, 2, 2, 3, 0, 1, 2, 3, 0, 0, 3, 0, 0, 0 
 | 0, 0, 0, 0, 0, 0, 0, 0, 0, 0, 3, 0, 3, 0, 0, 0, 0, 0 
 | 0, 0, 0, 2, 0, 3, 0, 0, 0, 0, 3, 2, 2, 0, 1, 0, 1, 0 
 | 1, 0, 3, 0, 1, 0, 0, 0, 0, 0, 3, 0, 2, 3, 0, 3, 0, 0 
 | 2, 0, 0, 0, 0, 0, 2, 3, 0, 2, 3, 0, 0, 3, 0, 0, 0, 3 
 | 0, 0, 0, 0, 0, 0, 0, 3, 0, 0, 3, 0, 0, 0, 0, 1, 0, 0 
 | 3, 0, 1, 1, 0, 0, 3, 0, 3, 2, 3, 0, 0, 1, 2, 1, 0, 2 
 | 3, 0, 2, 0, 2, 3, 1, 2, 1, 2, 3, 0, 0, 1, 0, 3, 0, 1 
 | 0, 0, 3, 0, 0, 0, 0, 0, 0, 0, 0, 0, 0, 0, 0, 0, 2, 0 
 | 2, 0, 2, 0, 0, 3, 0, 3, 0, 2, 0, 0, 0, 0, 3, 0, 0, 0 
 | 0, 3, 0, 2, 0, 0, 0, 0, 0, 0, 0, 3, 0, 0, 0, 0, 1, 0 
 | 0, 0, 0, 3, 2, 0, 3, 2, 0, 0, 0, 3, 0, 1, 3, 0, 0, 0 
 | 3, 0, 0, 0, 0, 3, 2, 2, 0, 2, 0, 3, 0, 0, 0, 3, 0, 0 
 | 0, 0, 0, 3, 0, 0, 0, 0, 0, 0, 0, 3, 0, 0, 0, 0, 0, 0 
 | 3, 2, 1, 1, 1, 2, 0, 0, 2, 0, 3, 1, 3, 0, 0, 0, 0, 0 
 | 0, 0, 0, 3, 0, 0, 0, 2, 0, 0, 0, 0, 3, 0, 3, 0, 0, 0 
 | 0, 0, 3, 3, 0, 3, 0, 3, 0, 0, 0, 0, 0, 0, 0, 2, 0, 0 
 | 0, 0, 0, 0, 3, 3, 0, 0, 0, 0, 0, 0, 0, 0, 0, 3, 0, 0 
 | 0, 0, 3, 3, 0, 3, 0, 0, 0, 0, 0, 0, 0, 0, 0, 0, 0, 0 
 | 0, 0, 0, 0, 0, 3, 0, 0, 0, 0, 0, 3, 0, 0, 3, 0, 0, 0 
 | 0, 0, 0, 0, 0, 0, 0, 0, 0, 0, 0, 3, 0, 0, 0, 0, 0, 0 
 | 0, 0, 0, 0, 3, 0, 0, 0, 0, 2, 0, 0, 0, 0, 3, 0, 0, 0 
 | 0, 0, 0, 0, 0, 0, 0, 0, 0, 0, 0, 0, 0, 0, 3, 3, 0, 0 
 | 2, 0, 0, 0, 0, 3, 0, 0, 2, 0, 0, 3, 0, 0, 3, 0, 0, 0 
 | 2, 1, 1, 2, 0, 0, 3, 3, 0, 1, 2, 0, 0, 1, 2, 0, 0, 3 
 | 3, 0, 2, 0, 0, 0, 3, 3, 0, 0, 2, 0, 0, 1, 3, 0, 0, 2 
 | 0, 0, 0, 0, 0, 3, 0, 3, 0, 0, 0, 0, 3, 0, 0, 0, 0, 0 
 | 0, 0, 0, 0, 0, 3, 0, 3, 0, 0, 0, 0, 0, 0, 3, 0, 0, 0 
 | 0, 0, 0, 2, 0, 2, 0, 0, 0, 0, 0, 0, 0, 0, 3, 0, 0, 0 
 | 0, 3, 2, 0, 3, 0, 1, 1, 0, 2, 1, 3, 3, 0, 0, 0, 0, 0 
 | 3, 0, 1, 0, 0, 3, 2, 0, 0, 2, 2, 0, 3, 2, 3, 0, 0, 0 
 | 0, 0, 0, 0, 0, 0, 0, 3, 0, 0, 0, 0, 0, 0, 0, 3, 0, 0 
 | 0, 3, 0, 0, 0, 3, 0, 2, 2, 2, 3, 0, 0, 1, 0, 3, 0, 0 
 | 2, 0, 2, 0, 0, 3, 0, 2, 0, 0, 0, 3, 3, 0, 3, 0, 0, 0 
 | 3, 0, 0, 3, 0, 3, 0, 0, 3, 0, 0, 0, 0, 0, 0, 2, 0, 0 
 | 0, 0, 0, 0, 0, 0, 0, 0, 0, 0, 0, 3, 0, 0, 3, 0, 2, 0 
 | 0, 0, 0, 0, 0, 0, 0, 0, 0, 3, 0, 0, 0, 3, 0, 0, 0, 0 
 | 1, 0, 0, 0, 1, 3, 0, 3, 0, 1, 0, 0, 0, 3, 3, 0, 0, 0 
 | 3, 0, 3, 0, 0, 0, 1, 1, 0, 1, 2, 2, 3, 0, 3, 2, 1, 2 
 | 0, 0, 0, 0, 0, 3, 0, 0, 0, 0, 0, 3, 0, 0, 3, 0, 0, 0 
 | 0, 0, 3, 0, 0, 0, 0, 0, 0, 0, 3, 0, 0, 0, 0, 0, 0, 0 
 | 0, 0, 0, 0, 3, 0, 0, 0, 0, 0, 0, 0, 0, 0, 0, 0, 0, 0 
 | 3, 1, 0, 0, 1, 3, 2, 3, 1, 1, 2, 0, 0, 2, 0, 0, 2, 3 
 | 0, 0, 0, 0, 0, 0, 0, 0, 0, 0, 0, 0, 0, 0, 3, 0, 0, 0 
 | 0, 0, 0, 0, 0, 0, 0, 0, 0, 0, 0, 3, 0, 0, 3, 0, 0, 0 
 | 0, 0, 0, 3, 0, 0, 0, 3, 0, 0, 0, 2, 3, 0, 3, 0, 0, 0 
 | 0, 0, 0, 3, 0, 0, 0, 0, 0, 0, 0, 3, 0, 0, 0, 0, 3, 3 
 | 0, 1, 2, 1, 1, 3, 2, 3, 1, 0, 0, 3, 0, 2, 0, 2, 1, 2 
 | 2, 2, 0, 3, 1, 0, 2, 3, 1, 1, 0, 0, 0, 0, 0, 3, 3, 2 
 | 0, 0, 0, 3, 0, 0, 0, 0, 0, 0, 0, 3, 3, 0, 0, 0, 0, 0 
 | 0, 0, 0, 0, 0, 3, 0, 0, 0, 0, 0, 3, 0, 0, 3, 0, 0, 0 
 | 3, 0, 0, 0, 0, 3, 2, 2, 0, 0, 0, 3, 0, 0, 3, 0, 0, 0 
 | 0, 0, 0, 0, 0, 0, 0, 0, 0, 0, 3, 0, 0, 0, 0, 0, 0, 0 
 | 3, 0, 0, 0, 0, 0, 0, 0, 0, 0, 0, 0, 0, 0, 0, 0, 0, 0 
 | 0, 0, 0, 3, 0, 0, 0, 0, 0, 0, 0, 3, 0, 0, 3, 0, 0, 0 
 | 0, 0, 0, 0, 0, 3, 0, 0, 0, 0, 3, 3, 0, 0, 0, 0, 0, 0 
 | 0, 0, 3, 0, 0, 0, 0, 0, 0, 0, 0, 0, 3, 0, 3, 0, 0, 0 
 | 0, 0, 0, 0, 0, 0, 0, 3, 0, 0, 0, 0, 0, 0, 0, 0, 0, 0 
 | 0, 0, 0, 0, 0, 3, 0, 0, 0, 0, 0, 0, 0, 0, 3, 0, 0, 0 
 | 2, 0, 1, 0, 0, 3, 3, 1, 1, 0, 3, 0, 1, 2, 2, 0, 2, 3 
 | 0, 0, 2, 0, 0, 0, 0, 3, 0, 0, 3, 0, 2, 3, 0, 3, 0, 0 
 | 0, 0, 0, 0, 0, 0, 0, 0, 0, 0, 0, 0, 0, 0, 0, 3, 0, 0 
 | 0, 0, 0, 0, 0, 0, 0, 0, 3, 0, 0, 0, 0, 0, 3, 0, 0, 0 
 | 2, 3, 1, 0, 1, 3, 0, 3, 2, 2, 0, 0, 0, 0, 0, 3, 0, 0 
 | 0, 0, 0, 0, 1, 0, 1, 1, 2, 0, 1, 0, 0, 0, 3, 0, 0, 0 
 | 0, 0, 0, 0, 0, 3, 0, 0, 0, 0, 0, 0, 0, 0, 3, 0, 0, 0 
 | 2, 0, 0, 0, 3, 0, 0, 0, 0, 3, 2, 3, 0, 0, 3, 2, 0, 0 
 | 3, 0, 0, 0, 0, 3, 0, 0, 0, 0, 0, 3, 3, 0, 0, 0, 0, 0 
 | 0, 0, 1, 1, 2, 0, 3, 3, 0, 0, 2, 2, 2, 0, 3, 0, 1, 1 
 | 0, 0, 0, 3, 0, 0, 0, 0, 0, 3, 0, 0, 0, 0, 0, 0, 0, 0 
 | 2, 0, 2, 0, 0, 3, 0, 2, 0, 0, 0, 3, 3, 0, 3, 0, 0, 0 
 | 0, 0, 3, 0, 0, 0, 2, 0, 0, 0, 3, 0, 3, 0, 0, 0, 0, 0 
 | 3, 0, 3, 0, 0, 2, 3, 3, 0, 0, 2, 0, 2, 0, 2, 0, 0, 0 
 | 0, 0, 0, 0, 0, 3, 0, 0, 0, 0, 0, 0, 0, 0, 0, 0, 0, 0 
 | 0, 0, 0, 2, 2, 0, 3, 3, 0, 0, 1, 0, 2, 0, 3, 0, 2, 1 
 | 3, 0, 3, 1, 0, 0, 2, 1, 0, 0, 0, 0, 2, 0, 3, 0, 0, 0 
|];
avg_grade_100 = [
  700, 650, 800, 720, 690, 750, 710, 680, 790, 660,
  740, 770, 630, 705, 695, 760, 735, 645, 785, 715,
  670, 755, 725, 690, 640, 780, 700, 665, 750, 730,
  710, 695, 760, 680, 745, 720, 655, 775, 705, 690,
  735, 760, 670, 780, 700, 650, 790, 725, 715, 685,
  740, 770, 660, 755, 720, 700, 780, 690, 745, 710,
  675, 765, 730, 695, 750, 720, 680, 785, 705, 660,
  740, 770, 690, 755, 725, 700, 780, 710, 695, 760
];

previous_rejections = array2d(1..80, 1..18, [ 1,2,0,0,0,0,2,0,0,0,0,0,0,0,3,1,1,0, 0,0,1,0,0,0,0,0,0,0,0,0,0,0,0,0,1,1, 0,0,0,0,0,1,3,2,0,0,2,2,0,0,0,1,0,0, 2,0,0,0,0,0,0,0,0,0,0,0,1,0,0,0,0,0, 0,0,0,0,0,0,0,0,0,0,1,0,0,0,0,0,0,0, 0,0,0,0,0,0,0,2,0,0,0,0,0,0,1,0,0,3, 0,1,0,0,0,0,1,0,2,0,0,0,0,0,0,2,0,0, 0,0,0,0,0,0,0,3,3,0,2,0,0,1,0,1,0,0, 0,0,1,0,0,1,2,0,0,0,1,3,0,0,2,0,1,0, 1,0,0,0,1,0,1,1,2,1,3,1,1,2,0,0,0,0, 0,0,2,0,2,1,1,0,0,1,0,1,0,0,0,0,0,2, 0,0,0,0,2,0,0,0,2,1,0,0,2,1,0,0,0,0, 0,0,0,0,2,1,0,0,0,0,1,0,1,0,0,0,0,0, 0,0,3,3,0,1,0,0,0,0,0,0,0,0,0,1,0,0, 0,0,0,0,0,1,0,2,0,0,0,0,0,0,0,0,0,0, 0,0,0,0,0,0,0,1,1,0,0,0,2,1,0,2,0,0, 1,1,0,0,0,0,2,1,0,0,0,0,0,0,0,0,0,0, 3,0,0,0,0,3,1,0,0,0,3,0,3,0,0,1,0,0, 0,0,1,0,0,0,0,0,0,0,0,0,0,1,0,0,0,0, 0,0,0,3,3,0,0,0,1,0,1,0,0,0,0,0,0,0, 0,0,0,0,0,0,0,0,2,2,0,0,0,0,0,0,0,1, 3,0,1,0,0,2,0,3,0,1,0,0,1,2,0,2,2,3, 0,0,0,0,0,0,0,0,0,2,0,0,0,1,0,0,0,0, 0,0,1,2,0,0,0,0,0,0,2,1,0,0,0,1,0,0, 1,0,0,0,0,0,0,0,0,0,0,0,1,0,0,0,0,1, 0,2,0,0,0,3,0,0,0,0,0,0,1,0,0,0,3,0, 0,0,0,0,0,3,0,0,0,0,0,0,0,0,0,0,0,0, 0,1,0,0,0,1,0,2,3,0,0,0,0,0,1,1,1,0, 0,0,1,0,0,0,1,0,0,2,0,0,0,0,2,2,0,1, 0,2,0,0,0,3,0,0,0,0,0,0,0,0,1,0,0,1, 1,0,0,1,0,0,0,0,0,0,1,0,0,2,3,0,2,0, 0,0,0,0,2,0,0,0,1,0,0,0,0,0,1,1,0,2, 0,0,1,1,1,0,0,1,0,0,0,0,0,0,0,0,2,1, 0,0,0,0,0,0,0,0,0,1,0,0,0,0,0,2,1,0, 1,0,0,1,0,0,0,0,1,0,1,0,2,2,3,0,0,0, 0,2,0,0,0,0,0,0,0,0,0,0,0,0,0,0,0,1, 0,0,1,0,0,2,0,1,0,0,0,3,3,1,0,0,0,0, 0,0,0,0,0,0,2,0,0,0,1,0,0,0,0,0,0,0, 0,0,0,0,0,0,0,0,0,0,0,0,0,0,0,0,0,0, 0,2,0,1,0,2,0,0,0,0,1,0,0,0,0,0,0,0, 2,0,1,0,0,1,0,0,0,0,0,0,0,0,0,0,1,0, 2,1,0,0,0,3,0,0,0,0,0,0,0,0,0,0,0,0, 0,0,0,0,0,1,1,0,0,1,0,0,0,0,0,0,1,2, 1,0,0,0,2,0,0,2,1,1,0,0,0,0,0,0,0,1, 1,0,0,0,0,0,0,0,0,0,2,2,0,0,0,0,0,1, 0,0,1,0,0,0,0,0,0,0,0,0,0,0,0,0,0,0, 2,1,0,0,0,0,0,0,0,0,0,0,0,0,0,0,0,0, 0,1,1,0,0,0,0,1,0,0,0,2,0,0,0,2,0,0, 0,0,0,2,0,0,0,0,0,0,1,0,0,0,0,0,0,0, 0,0,0,0,0,0,1,0,0,0,0,0,0,0,0,0,0,0, 0,0,0,0,0,2,0,0,0,0,0,2,1,0,1,0,0,0, 1,0,0,0,0,0,0,1,0,1,2,0,0,0,0,0,1,0, 0,0,0,0,1,0,1,0,0,0,0,0,0,0,0,0,1,2, 1,0,1,0,2,0,0,3,1,3,1,0,2,0,3,0,2,0, 1,0,0,0,0,0,3,0,0,0,0,1,0,0,1,3,0,2, 3,1,2,0,0,0,0,0,0,1,2,0,1,0,0,0,0,0, 0,0,0,0,0,1,3,0,1,3,0,0,0,1,0,0,0,0, 0,0,0,0,0,3,0,0,0,0,0,0,0,0,0,0,1,0, 0,0,0,0,0,0,1,0,0,3,0,0,1,0,0,0,1,0, 0,0,1,0,0,0,1,0,0,0,1,0,1,0,0,0,0,1, 0,0,0,1,0,0,0,1,0,0,1,0,1,0,0,0,0,0, 0,1,0,0,0,0,0,0,0,0,0,0,0,0,1,0,0,1, 0,0,0,2,3,0,0,0,0,0,0,0,1,0,0,0,0,0, 0,0,0,1,0,0,0,0,1,0,0,0,0,0,0,0,0,0, 0,0,0,0,0,0,1,0,0,0,0,0,0,0,0,0,0,0, 2,0,3,0,0,0,0,1,1,2,0,1,0,1,0,0,2,0, 0,0,0,0,0,0,1,0,1,0,0,0,0,0,0,0,0,0, 0,3,0,0,1,0,0,0,0,1,0,1,0,0,0,0,1,0, 0,0,0,0,0,0,2,0,0,0,0,0,0,0,1,1,0,0, 0,0,1,0,2,2,0,0,0,3,2,0,0,0,0,1,1,0, 0,0,1,2,0,0,0,0,0,0,0,0,0,0,0,1,0,0, 0,1,0,0,0,0,0,2,0,0,0,0,0,1,0,0,0,0, 0,0,2,0,0,0,0,1,0,2,0,0,1,0,0,0,0,0, 0,0,0,0,0,0,0,0,0,1,0,0,0,0,2,0,0,1, 0,2,0,1,1,0,1,1,0,1,0,0,1,0,1,0,0,0, 1,1,0,0,0,0,0,1,0,0,0,0,0,1,0,1,0,1, 0,0,3,0,0,0,0,0,0,1,0,3,0,0,0,0,0,1, 0,0,0,1,0,1,2,0,0,2,0,1,1,0,1,0,0,0, 3,1,0,0,1,0,0,1,1,2,2,0,1,0,1,1,0,0, 0,0,2,0,1,0,0,1,0,0,0,1,0,0,2,0,2,0 ]);

weight_preferences = 950;
weight_grade = 30;
weight_rejections = 20;
max_previous_rejections_considered = 4;
